c Sudoku solution
p cnf 729 0
183 0
219 0
248 0
251 0
275 0
294 0
315 0
343 0
367 0
388 0
391 0
532 0
563 0
595 0
631 0
645 0
658 0
674 0
697 0
729 0
439 0
425 0
855 0
165 0
896 0
912 0
933 0
735 0
985 0
873 0
753 0
223 0
626 0
613 0
716 0
493 0
946 0
784 0
322 0
662 0
689 0
152 0
266 0
199 0
282 0
177 0
376 0
136 0
237 0
334 0
144 0
359 0
838 0
549 0
747 0
842 0
954 0
441 0
464 0
887 0
927 0
869 0
979 0
771 0
792 0
998 0
768 0
961 0
578 0
581 0
486 0
472 0
457 0
556 0
418 0
517 0
524 0
814 0
821 0
111 0
128 0
